webassembly/ejemplos_results/5/folder5_json_92.txt
value = 5;
fgas = [1, 1, 1, 1, 1];
fsize = [1, 1, 1, 1, 1];
states = 
[|    in_0,  '.', '.', '.', '.', '.',  '.'
 | local_1, in_0, '.', '.', '.', '.',  '.'
 |  's(0)', in_0, '.', '.', '.', '.',  '.'
 |     '.',  '.', '.', '.', '.', '.', in_0
 | local_0,  '.', '.', '.', '.', '.',  '.'
 |  's(1)',  '.', '.', '.', '.', '.',  '.'
 |];
register_states = 
[| '.', '.', '.'
 | '.', '.', '.'
 | '.', '.', '.'
 | '.', '.', '.'
 | '.', '.', '.'
 | '.', '.', '.'
 |];
program = [O('local.get_1'), O('i32.load8_u_1'), O('i32.store8_2'), O('local.get_0'), O('i32.load8_s_4')];
% time elapsed: 0.06 s
----------
==========
% time elapsed: 0.06 s
% [value > 4]
